1637397
39, 9, 23, 11, 40, 68, 38, 10, 44, 61, 17, 27, 45, 35, 51, 48, 15, 64, 41, 8, 22, 43, 58, 33, 37, 53, 18, 57, 52, 14, 31, 46, 34, 55, 66, 7, 67, 62, 26, 6, 49, 19, 54, 13, 1, 42, 32, 56, 5, 60, 29, 25, 30, 3, 24, 4, 20, 65, 2, 16, 59, 28, 50, 63, 36, 47, 12, 21
